data;

set A := 611706 318077 349269 367310 230891 494296 67773 269265 744696 376066 249186 968438 569632 126686 842081 294596 909931 831594 606912 950271 607660 511229 524718 983394 708480 814984 908613 536163 788495 344663 771402 790964 353608 568399 396713 277118 730278 697519 424443 536549 447343 739920 103361 727369;
param T := 11000000;

end;
